Route #1: 67 3 35 7 71 60 125 51
Route #2: 63 118 110 64 23 66 5
Route #3: 24 117 29 16 18 50
Route #4: 9 46 21
Route #5: 109 28 56 2 47 80 37 119 78 85
Route #6: 124 93 88 115 12 20 10 79
Route #7: 4 15 25
Route #8: 97 61
Route #9: 86 31 26 48 102 122
Route #10: 121 33 41
Route #11: 52 106 90 89 116
Route #12: 74 84 77
Route #13: 32 53 45 75 98
Route #14: 57 83
Route #15: 13 104 55
Route #16: 17 100 113
Route #17: 36 76
Route #18: 38 54 95
Route #19: 111 123 62
Route #20: 99 72 30
Route #21: 19 11 105 69
Route #22: 101 70 120
Route #23: 92 58 40
Route #24: 6 34 114
Route #25: 22 49 42 96
Route #26: 65 8 73 68 108 81 59
Route #27: 87 107 44
Route #28: 27 94
Route #29: 39 112
Route #30: 103 91 82 43 14
Cost 86706
